c --- [ banner ] -------------------------------------------------------------
c 
c CaDiCaL Radically Simplified CDCL SAT Solver
c Copyright (c) 2016-2021 A. Biere, M. Fleury, N. Froleyks
c 
c Version 1.5.2 a5f15211db36c3956764e18194dd5bd63bf3b5e6
c g++ (GCC) 9.3.0 -Wall -Wextra -O3 -DNDEBUG
c Fri Oct 21 01:27:37 EDT 2022 Linux gra-login3 3.10.0-1160.66.1.el7.x86_64 x86_64
c 
c --- [ limit ] --------------------------------------------------------------
c 
c setting conflict limit to 200000 conflicts (due to '200000')
c 
c --- [ parsing input ] ------------------------------------------------------
c 
c reading DIMACS file from '33.cubes3302.adj'
c opening file to read '33.cubes3302.adj'
c found 'p cnf 6160 1595470' header
c parsed 1595470 clauses in 19.45 seconds process time
c closing file '33.cubes3302.adj'
c after reading 1457566743 bytes 1390.0 MB
c 
c --- [ options ] ------------------------------------------------------------
c 
c all options are set to their default value
c 
c --- [ solving ] ------------------------------------------------------------
c 
c time measured in process time since initialization
c 
c  seconds    reductions  redundant   irredundant
c          MB     restarts       trail       variables
c            level   conflicts       glue         remaining
c 
c * 19.45 1380  0 0   0    0    0  0% 0 1595422 2444 40%
c { 20.78 1434  0 0   0    0    0  0% 0 1595422 2444 40%
c i 24.29 1493 251 0  10   85   76 26% 21 1595422 2443 40%
c i 24.33 1493 247 0  10   87   77 27% 21 1595422 2442 40%
c i 24.66 1498 241 0  13   95   84 27% 23 1595422 2441 40%
c i 24.72 1498 231 0  13  104   87 27% 24 1595422 2440 40%
c i 26.35 1507 161 0  23  177  148 27% 22 1595422 2439 40%
c i 27.15 1508 147 0  26  234  196 27% 22 1595422 2436 40%
c i 27.36 1508 148 0  28  248  207 27% 24 1595422 2435 40%
c - 30.98 1442 126 1  33  300  246 28% 22 243634 2435 40%
c i 31.17 1397 126 1  33  302  247 28% 22 243634 2434 40%
c i 31.85 1363 123 1  52  400  322 27% 29 243634 2433 39%
c i 32.35 1363 119 1  68  465  376 27% 32 243634 2432 39%
c i 32.41 1363 118 1  70  477  387 27% 32 243634 2431 39%
c i 32.49 1363 109 1  70  532  426 27% 31 243634 2430 39%
c i 32.50 1363 109 1  70  537  430 27% 31 243634 2429 39%
c i 32.52 1363 106 1  70  555  439 27% 31 243634 2428 39%
c i 32.60 1363 98 1  70  622  488 28% 30 243634 2427 39%
c i 32.60 1363 97 1  70  624  489 28% 30 243634 2426 39%
c i 32.84 1363 96 1  73  687  538 28% 32 243634 2425 39%
c 
c  seconds    reductions  redundant   irredundant
c          MB     restarts       trail       variables
c            level   conflicts       glue         remaining
c 
c i 33.17 1364 91 1  89  759  596 28% 32 243634 2424 39%
c i 33.91 1364 92 1 107  849  678 28% 33 243634 2423 39%
c i 34.25 1364 84 1 107  992  791 28% 31 243634 2422 39%
c } 34.28 1364 84 1 107 1000  798 28% 31 243634 2422 39%
c [ 34.28 1364  0 1 107 1000  798  0% 0 243634 2422 39%
c O 34.28 1364 36 1 107 1003  801 22% 18 243634 2422 39%
c i 34.49 1365 14 1 107 1017  813 24% 9 243634 2421 39%
c - 35.05 1490 16 2 107 1134  806 32% 13 243596 2421 39%
c i 35.15 1490 17 2 107 1198  835 32% 14 243596 2420 39%
c i 35.15 1490 17 2 107 1201  837 32% 13 243596 2419 39%
c i 35.16 1490 17 2 107 1222  852 32% 14 243596 2418 39%
c i 35.21 1490 19 2 107 1343  911 32% 16 243596 2417 39%
c i 35.32 1490 20 2 107 1666 1072 32% 17 243596 2416 39%
c i 35.37 1490 21 2 107 1794 1151 32% 18 243596 2415 39%
c i 35.37 1490 21 2 107 1803 1157 32% 18 243596 2414 39%
c i 35.40 1490 22 2 107 1927 1235 32% 19 243596 2413 39%
c i 35.41 1490 22 2 107 1962 1251 32% 19 243596 2412 39%
c i 35.49 1490 22 2 108 2224 1378 32% 20 243596 2411 39%
c - 35.88 1488 23 3 108 2385 1089 32% 20 243569 2411 39%
c ] 36.27 1488 23 3 108 3000 1489 55% 21 243569 2411 39%
c 
c  seconds    reductions  redundant   irredundant
c          MB     restarts       trail       variables
c            level   conflicts       glue         remaining
c 
c { 36.27 1488 84 3 108 3000 1489 72% 31 243569 2411 39%
c F 36.28 1488 83 3 108 3005 1493 72% 31 243569 2411 39%
c - 37.02 1488 54 4 108 4050 1732 63% 25 243569 2411 39%
c i 37.30 1488 47 4 108 4861 2298 60% 25 243569 2410 39%
c d 37.82 1488 46 4 112 5002 2401 60% 25 229474 2400 39%
c 2 37.87 1488 46 4 112 5002 3811 60% 25 229458 2392 39%
c p 39.96 1488 46 4 112 5002 7951 60% 25 229458 2212 36%
c d 40.45 1488 46 4 112 5002 6803 60% 25 213446 2209 36%
c d 40.56 1488 46 4 112 5002 6800 60% 25 213443 2207 36%
c # 41.96 1488 45 4 201 6006 7614 58% 25 213443 2207 36%
c - 42.18 1365 44 5 201 6133 2590 58% 25 213443 2207 36%
c } 44.23 1365 44 5 273 7000 3252 56% 25 213443 2207 36%
c [ 44.23 1365 23 5 273 7000 3252 55% 21 213443 2207 36%
c - 44.70 1365 32 6 274 8525 3112 53% 26 213443 2207 36%
c I 45.27 1365 31 6 275 10010 4155 52% 24 213443 2207 36%
c - 46.89 1366 30 7 277 11322 3627 53% 24 213443 2207 36%
c - 48.80 1366 30 8 278 14514 3957 54% 25 213443 2207 36%
c ] 49.04 1366 30 8 278 15001 4274 54% 25 213443 2207 36%
c { 49.04 1366 44 8 278 15001 4274 56% 25 213443 2207 36%
c 2 49.09 1366 44 8 278 15002 5687 56% 25 213437 2207 36%
c 
c  seconds    reductions   redundant   irredundant
c          MB     restarts        trail       variables
c            level    conflicts       glue         remaining
c 
c p 50.81 1366 44 8 278 15002 8963 56% 25 213437 2207 36%
c B 50.99 1366 44 8 279 15014 8975 56% 25 213437 2207 36%
c - 53.87 1366 37 9 327 18105 4448 55% 23 213437 2207 36%
c s 54.13 1366 36 9 327 18701 4750 54% 22 211372 2207 36%
c v 57.31 1366 36 9 327 18701 4750 54% 22 211345 2207 36%
c w 57.43 1366 36 9 327 18701 4745 54% 22 211345 2207 36%
c t 57.44 1366 36 9 327 18701 4732 54% 22 211331 2207 36%
c e 58.25 1368 36 9 327 18701 4283 54% 22 208706 862 14%
c s 58.34 1368 36 9 327 18701 4282 54% 22 205153 862 14%
c W 60.80 1368 32 9 337 21015 5690 71% 21 205153 862 14%
c - 62.49 1368 32 10 452 22094 4928 70% 21 205153 862 14%
c - 63.80 1368 29 11 455 26423 5324 71% 20 205153 862 14%
c F 64.25 1368 27 11 455 28016 6321 71% 19 205153 862 14%
c p 71.80 1368 28 11 649 30002 10084 71% 19 205153 862 14%
c } 72.89 1368 28 11 649 31005 10666 71% 19 205153 862 14%
c [ 72.89 1368 30 11 649 31005 10666 151% 25 205153 862 14%
c - 73.06 1370 30 12 649 31148 6088 150% 24 205153 862 14%
c B 78.33 1370 25 12 652 36019 8640 121% 21 205153 862 14%
c - 78.59 1370 26 13 652 36265 5979 120% 22 205153 862 14%
c - 80.60 1370 37 14 655 41778 7379 106% 30 205153 862 14%
c 
c  seconds    reductions    redundant    irredundant
c          MB      restarts        trail        variables
c            level     conflicts        glue        remaining
c 
c W 82.22 1370 40 14 656 45020 9878 100% 33 205153 862 14%
c - 82.88 1370 40 15 657 47685 7774 97% 33 205153 862 14%
c p 84.59 1370 39 15 657 50002 11980 95% 32 205153 862 14%
c s 84.96 1370 39 15 657 50283 12126 94% 32 204005 862 14%
c v 87.65 1370 39 15 657 50283 12126 94% 32 203999 862 14%
c t 87.85 1369 39 15 657 50283 12071 94% 32 203998 862 14%
c s 88.80 1371 39 15 657 50283 12070 94% 32 202330 862 14%
c - 90.83 1372 39 16 657 53984 8342 91% 32 202330 862 14%
c O 91.12 1372 39 16 658 55023 9076 90% 32 202330 862 14%
c - 93.96 1372 36 17 663 60644 8632 87% 29 202330 862 14%
c ] 95.25 1372 35 17 664 63005 10175 86% 29 202330 862 14%
c { 95.25 1372 28 17 664 63005 10175 71% 19 202330 862 14%
c B 98.44 1372 28 17 826 66028 12309 71% 19 202330 862 14%
c - 99.28 1372 27 18 870 67701 9228 71% 19 202330 862 14%
c p 108.92 1372 27 18 1179 75002 17038 72% 19 202330 860 14%
c - 109.52 1372 27 19 1179 75146 9670 72% 19 202324 860 14%
c W 111.12 1372 26 19 1184 78030 11437 72% 18 202324 860 14%
c - 113.27 1372 24 20 1227 82984 9854 72% 18 202324 860 14%
c } 116.96 1372 25 20 1444 86063 11934 72% 18 202324 860 14%
c 1 116.96 1372 25 20 1444 86063 11934 72% 18 202324 860 14%
c 
c --- [ writing output ] -----------------------------------------------------
c 
c writing simplified CNF to DIMACS file 'simp/33.cubes3302.adj.simp1'
c 
c  seconds     reductions      redundant   irredundant
c           MB      restarts          trail       variables
c             level      conflicts        glue        remaining
c 
c * 116.96 1372 25 20 1444 86063 11934 72% 18 202324 860 14%
c opening file to write 'simp/33.cubes3302.adj.simp1'
c writing 'p cnf 6160 202324' header
c closing file 'simp/33.cubes3302.adj.simp1'
c after writing 99672604 bytes 95.1 MB
c wrote 202324 clauses in 0.71 seconds process time
c 
c --- [ writing extension ] --------------------------------------------------
c 
c writing extension stack to 'simp/33.cubes3302.adj.ext1'
c opening file to write 'simp/33.cubes3302.adj.ext1'
c closing file 'simp/33.cubes3302.adj.ext1'
c after writing 89806 bytes 0.1 MB
c wrote 3959 witnesses in 0.00 seconds process time
c 
c --- [ result ] -------------------------------------------------------------
c 
s SATISFIABLE
c 
c --- [ run-time profiling ] -------------------------------------------------
c 
c process time taken by individual solving procedures
c (percentage relative to process time for solving)
c 
c        77.12   79.09% search
c        52.34   53.67% unstable
c        22.42   23.00% stable
c        20.39   20.91% simplify
c        19.45   19.94% parse
c         9.29    9.53% probe
c         6.14    6.30% vivify
c         3.13    3.21% elim
c         1.33    1.37% lucky
c         1.03    1.05% walk
c         0.44    0.45% subsume
c         0.16    0.17% ternary
c   =================================
c        97.51   82.87% solve
c 
c last line shows process time for solving
c (percentage relative to total process time)
c 
c --- [ statistics ] ---------------------------------------------------------
c 
c chronological:             16072        18.67 %  of conflicts
c conflicts:                 86063       882.63    per second
c decisions:                178643      1832.11    per second
c eliminated:                 1345        21.83 %  of all variables
c fixed:                       796        12.92 %  of all variables
c learned:                   84064        97.68 %  per conflict
c learned_lits:           16231393       100.00 %  learned literals
c minimized:                     0         0.00 %  learned literals
c shrunken:               10385534        63.98 %  learned literals
c minishrunken:            1239845         7.64 %  learned literals
c propagations:            6653486         0.07 M  per second
c reduced:                   45727        53.13 %  per conflict
c rephased:                     12      7171.92    interval
c restarts:                   1444        59.60    interval
c stabilizing:                   3        48.80 %  of conflicts
c substituted:                  15         0.24 %  of all variables
c subsumed:                  34448         1.01 %  of all clauses
c strengthened:              10013         0.29 %  of all clauses
c ternary:                    4659         0.75 %  of resolved
c vivified:                    109         0.00 %  of all clauses
c walked:                        3     28687.67    interval
c weakened:                   3163         3.11    average size
c 
c seconds are measured in process time for solving
c 
c --- [ resources ] ----------------------------------------------------------
c 
c total process time since initialization:       117.67    seconds
c total real time since initialization:          118.18    seconds
c maximum resident set size of process:         1613.62    MB
c 
c --- [ shutting down ] ------------------------------------------------------
c 
c exit 10
WARNING! DIMACS header mismatch: wrong number of variables.
============================[ Problem Statistics ]=============================
|                                                                             |
|  Number of variables:          4030                                         |
|  Number of clauses:          202328                                         |
|  Parse time:                   1.32 s                                       |
|  Simplification time:          0.02 s                                       |
|                                                                             |
============================[ Search Statistics ]====================================================
| Conflicts |          ORIGINAL         |          LEARNT          | Num Sols |      SUBGRAPHS      |
|           |    Vars  Clauses Literals |    Limit  Clauses Lit/Cl |          | Canonical Noncanon. |
=====================================================================================================
|       104 |    3941   202332 21416431 |     2000      104    256 |        0 |        14         4 |
|       273 |    3941   202351 21416799 |     2000      273    163 |        0 |        25        23 |
|       502 |    3941   202355 21416925 |     2000      502    139 |        0 |        27        27 |
|       857 |    3941   202373 21417182 |     2000      857    119 |        0 |        36        45 |
|      2030 |    3941   203040 21425347 |     3600     1030     12 |        0 |       258       712 |
|      4078 |    3941   204329 21441229 |     3600     3078     27 |        0 |       647      2001 |
|      6363 |    3941   205475 21455434 |     5008     3571     28 |        0 |       879      3147 |
|      8258 |    3941   205662 21458859 |     6309     2967     20 |        0 |       924      3334 |
|     11377 |    3941   206219 21469098 |     6309     6086     56 |        0 |      1039      3891 |
|     16143 |    3941   207141 21483720 |     8781     3924     12 |        0 |      1281      4813 |
|     22433 |    3941   207665 21492379 |     9995     5828     34 |        0 |      1488      5337 |
|     31647 |    3941   208230 21502141 |    11215    10062     59 |        0 |      1699      5902 |
|     45786 |    3941   209395 21518772 |    13612    12398     51 |        0 |      1980      7067 |
|     68224 |    3941   212372 21564467 |    17216    12640     47 |        0 |      2582     10044 |
|    106198 |    3941   221154 21681895 |    22014    12612     28 |        0 |      3781     18826 |
|    155331 |    3941   226498 21761984 |    26817    14148     22 |        0 |      5259     24170 |
|    224573 |    3941   230056 21812134 |    31624    26197     59 |        0 |      6399     27728 |
|    325643 |    3932   232599 21859741 |    38825    23468     42 |        0 |      7232     30272 |
|    480593 |    3924   239760 21946185 |    47229    30022     41 |        0 |      9757     37433 |
=====================================================================================================
Number of solutions   : 0
Canonical subgraphs   : 10534          (10 /sec)
          order  3    : 1              (166667 /sec)
          order  4    : 1              (500000 /sec)
          order  5    : 1              (250000 /sec)
          order  6    : 1              (55556 /sec)
          order  7    : 1              (7937 /sec)
          order  8    : 2              (1342 /sec)
          order  9    : 4              (236 /sec)
          order 10    : 13             (60 /sec)
          order 11    : 56             (18 /sec)
          order 12    : 330            (12 /sec)
          order 13    : 773            (13 /sec)
          order 14    : 2031           (18 /sec)
          order 15    : 1854           (10 /sec)
          order 16    : 3973           (8 /sec)
          order 17    : 764            (8 /sec)
          order 18    : 592            (7 /sec)
          order 19    : 118            (6 /sec)
          order 20    : 16             (6 /sec)
          order 21    : 3              (9 /sec)
          order 22    : 0              (-nan /sec)
Noncanonical subgraphs: 40834          (198 /sec)
          order  3    : 0              (-nan /sec)
          order  4    : 0              (-nan /sec)
          order  5    : 0              (-nan /sec)
          order  6    : 0              (-nan /sec)
          order  7    : 0              (-nan /sec)
          order  8    : 0              (-nan /sec)
          order  9    : 0              (-nan /sec)
          order 10    : 0              (-nan /sec)
          order 11    : 0              (-nan /sec)
          order 12    : 0              (-nan /sec)
          order 13    : 2764           (5033 /sec)
          order 14    : 9980           (863 /sec)
          order 15    : 15512          (668 /sec)
          order 16    : 5424           (316 /sec)
          order 17    : 6363           (47 /sec)
          order 18    : 696            (46 /sec)
          order 19    : 92             (25 /sec)
          order 20    : 0              (-nan /sec)
          order 21    : 0              (-nan /sec)
Canonicity checking   : 1076.95 s
Noncanonicity checking: 206.547 s
Total canonicity time : 1283.49 s
database reductions   : 41
restarts              : 1213
conflicts             : 574839         (404 /sec)
decisions             : 818786         (0.00 % random) (575 /sec)
propagations          : 24982639       (17546 /sec)
conflict literals     : 59412289       (52.07 % deleted)
actual reward         : 0.285060
Memory used           : 284.00 MB
CPU time              : 1423.85 s

UNSATISFIABLE
